set i := c1 c2 c3 c4 ;
set j := f1 f2 f3 ;


param :   CargoW    CargoVol  CargoProfit:=
c1        18        480       310
c2        15        650       380
c3        23        580       350
c4        12        390       285;


param :   planeWeight     planeSpace:=
f1            10           6800
f2            16           8700
f3            8            5300;